NAME          ClpDefau
ROWS
 N  OBJROW
 L  R_296_0
 L  R_296_1
 L  R_296_2
 L  R_296_3
 L  R_296_4
 L  R_296_5
 L  R_296_6
 L  R_296_7
 L  R_296_8
 L  R_296_9
 L  R_296_10
 L  R_296_11
 L  R_296_12
 L  R_296_13
 L  R_296_14
 L  R_296_15
 L  R_296_16
 L  R_296_17
 L  R_296_18
 L  R_296_19
 L  R_296_20
 L  R_296_21
 L  R_296_22
 L  R_296_23
 L  R_296_24
 L  R_296_25
 L  R_296_26
 L  R_296_27
 L  R_296_28
 L  R_296_29
 L  R_296_30
 L  R_296_31
COLUMNS
    x_0       OBJROW     -1.           R_296_0   4.          
    x_0       R_296_1   23.            R_296_2   66.         
    x_0       R_296_3   66.            R_296_4   24.         
    x_0       R_296_6   54.            R_296_7   98.         
    x_0       R_296_8   76.            R_296_9   58.         
    x_0       R_296_10  97.            R_296_11  95.         
    x_0       R_296_12  68.            R_296_13  36.         
    x_0       R_296_15  46.            R_296_16  59.         
    x_0       R_296_18  73.            R_296_19  72.         
    x_0       R_296_20  63.            R_296_21  42.         
    x_0       R_296_25  99.            R_296_27  91.         
    x_0       R_296_29  65.            R_296_30  76.         
    x_0       R_296_31  94.         
    x_1       OBJROW     -2.           R_296_0   66.         
    x_1       R_296_1   88.            R_296_2   10.         
    x_1       R_296_3   44.            R_296_4   25.         
    x_1       R_296_6   74.            R_296_7   35.         
    x_1       R_296_8   88.            R_296_10  67.         
    x_1       R_296_11  35.            R_296_12  27.         
    x_1       R_296_14  92.            R_296_15  8.          
    x_1       R_296_16  23.            R_296_17  4.          
    x_1       R_296_18  9.             R_296_19  94.         
    x_1       R_296_21  17.            R_296_23  24.         
    x_1       R_296_24  1.             R_296_25  6.          
    x_1       R_296_26  32.            R_296_27  5.          
    x_1       R_296_28  79.            R_296_29  96.         
    x_1       R_296_30  44.            R_296_31  40.         
    x_2       OBJROW     -2.           R_296_0   99.         
    x_2       R_296_1   6.             R_296_3   80.         
    x_2       R_296_4   61.            R_296_6   88.         
    x_2       R_296_7   14.            R_296_8   17.         
    x_2       R_296_9   100.           R_296_10  66.         
    x_2       R_296_11  44.            R_296_12  78.         
    x_2       R_296_14  90.            R_296_15  18.         
    x_2       R_296_16  33.            R_296_17  21.         
    x_2       R_296_18  59.            R_296_19  66.         
    x_2       R_296_21  5.             R_296_23  57.         
    x_2       R_296_24  11.            R_296_25  80.         
    x_2       R_296_26  80.            R_296_27  33.         
    x_2       R_296_28  36.            R_296_29  1.          
    x_2       R_296_30  50.            R_296_31  15.         
    x_3       OBJROW     -6.           R_296_0   12.         
    x_3       R_296_1   13.            R_296_2   97.         
    x_3       R_296_3   28.            R_296_4   86.         
    x_3       R_296_5   40.            R_296_6   49.         
    x_3       R_296_7   98.            R_296_9   56.         
    x_3       R_296_10  3.             R_296_11  7.          
    x_3       R_296_14  13.            R_296_15  62.         
    x_3       R_296_16  67.            R_296_18  47.         
    x_3       R_296_19  48.            R_296_20  88.         
    x_3       R_296_21  14.            R_296_22  100.        
    x_3       R_296_23  3.             R_296_25  82.         
    x_3       R_296_26  27.            R_296_28  1.          
    x_3       R_296_29  48.            R_296_30  93.         
    x_3       R_296_31  97.         
    x_4       OBJROW     -3.           R_296_0   15.         
    x_4       R_296_1   51.            R_296_2   18.         
    x_4       R_296_3   51.            R_296_5   16.         
    x_4       R_296_6   43.            R_296_7   28.         
    x_4       R_296_8   4.             R_296_9   61.         
    x_4       R_296_10  93.            R_296_11  38.         
    x_4       R_296_12  59.            R_296_13  48.         
    x_4       R_296_14  68.            R_296_16  94.         
    x_4       R_296_20  30.            R_296_21  77.         
    x_4       R_296_22  55.            R_296_23  90.         
    x_4       R_296_25  74.            R_296_26  46.         
    x_4       R_296_27  70.            R_296_28  54.         
    x_4       R_296_30  88.         
    x_5       OBJROW     -5.           R_296_0   17.         
    x_5       R_296_2   91.            R_296_3   88.         
    x_5       R_296_4   23.            R_296_5   15.         
    x_5       R_296_6   97.            R_296_7   43.         
    x_5       R_296_8   92.            R_296_9   22.         
    x_5       R_296_11  91.            R_296_12  46.         
    x_5       R_296_13  74.            R_296_14  60.         
    x_5       R_296_15  4.             R_296_17  95.         
    x_5       R_296_18  66.            R_296_19  36.         
    x_5       R_296_20  91.            R_296_21  53.         
    x_5       R_296_22  61.            R_296_23  71.         
    x_5       R_296_24  96.            R_296_26  93.         
    x_5       R_296_27  80.            R_296_28  86.         
    x_5       R_296_29  82.            R_296_31  68.         
    x_6       OBJROW     -5.           R_296_0   60.         
    x_6       R_296_1   13.            R_296_2   28.         
    x_6       R_296_3   78.            R_296_4   28.         
    x_6       R_296_6   72.            R_296_7   26.         
    x_6       R_296_8   76.            R_296_9   63.         
    x_6       R_296_11  79.            R_296_12  62.         
    x_6       R_296_13  73.            R_296_14  92.         
    x_6       R_296_15  98.            R_296_16  1.          
    x_6       R_296_18  86.            R_296_19  97.         
    x_6       R_296_20  87.            R_296_22  65.         
    x_6       R_296_23  11.            R_296_24  45.         
    x_6       R_296_25  97.            R_296_28  81.         
    x_6       R_296_29  93.            R_296_30  21.         
    x_6       R_296_31  60.         
    x_7       OBJROW     -10.          R_296_0   20.         
    x_7       R_296_1   72.            R_296_2   1.          
    x_7       R_296_3   69.            R_296_5   27.         
    x_7       R_296_7   84.            R_296_8   89.         
    x_7       R_296_9   39.            R_296_10  41.         
    x_7       R_296_11  83.            R_296_13  83.         
    x_7       R_296_14  12.            R_296_15  27.         
    x_7       R_296_16  68.            R_296_18  65.         
    x_7       R_296_19  40.            R_296_20  59.         
    x_7       R_296_21  67.            R_296_22  15.         
    x_7       R_296_23  49.            R_296_25  46.         
    x_7       R_296_26  59.            R_296_27  64.         
    x_7       R_296_28  38.            R_296_29  18.         
    x_7       R_296_31  82.         
    x_8       OBJROW     -4.           R_296_0   35.         
    x_8       R_296_1   13.            R_296_3   97.         
    x_8       R_296_4   48.            R_296_5   18.         
    x_8       R_296_6   30.            R_296_7   71.         
    x_8       R_296_8   52.            R_296_10  36.         
    x_8       R_296_13  89.            R_296_14  42.         
    x_8       R_296_15  97.            R_296_16  91.         
    x_8       R_296_18  92.            R_296_19  80.         
    x_8       R_296_20  10.            R_296_21  51.         
    x_8       R_296_22  34.            R_296_24  62.         
    x_8       R_296_25  24.            R_296_26  49.         
    x_8       R_296_27  4.             R_296_28  22.         
    x_8       R_296_29  94.            R_296_30  56.         
    x_8       R_296_31  42.         
    x_9       OBJROW     -10.          R_296_0   77.         
    x_9       R_296_1   37.            R_296_2   20.         
    x_9       R_296_3   26.            R_296_5   19.         
    x_9       R_296_6   43.            R_296_7   54.         
    x_9       R_296_8   12.            R_296_9   32.         
    x_9       R_296_10  94.            R_296_11  44.         
    x_9       R_296_13  79.            R_296_14  19.         
    x_9       R_296_15  9.             R_296_16  100.        
    x_9       R_296_17  42.            R_296_18  15.         
    x_9       R_296_19  99.            R_296_20  51.         
    x_9       R_296_21  7.             R_296_22  61.         
    x_9       R_296_23  41.            R_296_24  80.         
    x_9       R_296_25  76.            R_296_26  86.         
    x_9       R_296_30  53.            R_296_31  58.         
    x_10      OBJROW     -1.           R_296_0   14.         
    x_10      R_296_1   76.            R_296_2   88.         
    x_10      R_296_3   23.            R_296_4   40.         
    x_10      R_296_5   91.            R_296_6   14.         
    x_10      R_296_7   29.            R_296_8   19.         
    x_10      R_296_9   12.            R_296_10  84.         
    x_10      R_296_11  61.            R_296_12  62.         
    x_10      R_296_13  4.             R_296_14  65.         
    x_10      R_296_15  7.             R_296_16  1.          
    x_10      R_296_18  88.            R_296_19  31.         
    x_10      R_296_20  63.            R_296_21  70.         
    x_10      R_296_22  14.            R_296_23  7.          
    x_10      R_296_24  81.            R_296_25  80.         
    x_10      R_296_26  51.            R_296_28  65.         
    x_10      R_296_29  87.            R_296_30  14.         
    x_11      OBJROW     -10.          R_296_0   27.         
    x_11      R_296_1   26.            R_296_2   56.         
    x_11      R_296_3   17.            R_296_4   39.         
    x_11      R_296_6   61.            R_296_7   68.         
    x_11      R_296_8   36.            R_296_9   90.         
    x_11      R_296_10  71.            R_296_11  4.          
    x_11      R_296_12  97.            R_296_13  25.         
    x_11      R_296_14  6.             R_296_15  81.         
    x_11      R_296_16  34.            R_296_17  61.         
    x_11      R_296_18  95.            R_296_19  29.         
    x_11      R_296_21  5.             R_296_22  14.         
    x_11      R_296_23  89.            R_296_24  24.         
    x_11      R_296_25  12.            R_296_28  38.         
    x_11      R_296_30  42.            R_296_31  36.         
    x_12      OBJROW     -3.           R_296_1   9.          
    x_12      R_296_2   54.            R_296_3   5.          
    x_12      R_296_4   85.            R_296_6   94.         
    x_12      R_296_7   3.             R_296_8   43.         
    x_12      R_296_9   94.            R_296_10  68.         
    x_12      R_296_11  26.            R_296_12  17.         
    x_12      R_296_13  58.            R_296_16  79.         
    x_12      R_296_17  25.            R_296_18  57.         
    x_12      R_296_19  61.            R_296_21  10.         
    x_12      R_296_22  78.            R_296_23  61.         
    x_12      R_296_24  79.            R_296_25  74.         
    x_12      R_296_27  40.            R_296_29  39.         
    x_12      R_296_30  4.             R_296_31  41.         
    x_13      OBJROW     -7.           R_296_0   69.         
    x_13      R_296_1   93.            R_296_2   57.         
    x_13      R_296_3   61.            R_296_5   75.         
    x_13      R_296_6   28.            R_296_7   78.         
    x_13      R_296_8   93.            R_296_9   76.         
    x_13      R_296_10  36.            R_296_11  64.         
    x_13      R_296_12  31.            R_296_13  39.         
    x_13      R_296_16  80.            R_296_17  43.         
    x_13      R_296_18  90.            R_296_19  53.         
    x_13      R_296_20  28.            R_296_21  34.         
    x_13      R_296_22  18.            R_296_24  56.         
    x_13      R_296_25  59.            R_296_26  61.         
    x_13      R_296_28  31.            R_296_29  69.         
    x_13      R_296_30  12.            R_296_31  70.         
    x_14      OBJROW     -7.           R_296_0   7.          
    x_14      R_296_1   56.            R_296_2   66.         
    x_14      R_296_3   47.            R_296_4   67.         
    x_14      R_296_6   9.             R_296_7   95.         
    x_14      R_296_8   36.            R_296_9   62.         
    x_14      R_296_10  84.            R_296_11  42.         
    x_14      R_296_12  7.             R_296_13  83.         
    x_14      R_296_14  98.            R_296_15  72.         
    x_14      R_296_16  87.            R_296_17  56.         
    x_14      R_296_18  5.             R_296_19  85.         
    x_14      R_296_20  7.             R_296_22  44.         
    x_14      R_296_23  13.            R_296_24  14.         
    x_14      R_296_25  45.            R_296_26  82.         
    x_14      R_296_27  62.            R_296_29  20.         
    x_14      R_296_30  44.            R_296_31  82.         
    x_15      OBJROW     -9.           R_296_0   87.         
    x_15      R_296_2   7.             R_296_4   70.         
    x_15      R_296_5   99.            R_296_6   54.         
    x_15      R_296_7   24.            R_296_8   6.          
    x_15      R_296_9   98.            R_296_12  38.         
    x_15      R_296_13  6.             R_296_15  29.         
    x_15      R_296_16  47.            R_296_17  77.         
    x_15      R_296_19  71.            R_296_20  1.          
    x_15      R_296_21  11.            R_296_22  36.         
    x_15      R_296_23  29.            R_296_24  67.         
    x_15      R_296_27  17.            R_296_28  17.         
    x_15      R_296_29  48.            R_296_30  74.         
    x_15      R_296_31  57.         
    x_16      OBJROW     -6.           R_296_1   83.         
    x_16      R_296_2   64.            R_296_3   17.         
    x_16      R_296_5   33.            R_296_6   20.         
    x_16      R_296_7   73.            R_296_8   57.         
    x_16      R_296_9   25.            R_296_10  35.         
    x_16      R_296_11  46.            R_296_12  5.          
    x_16      R_296_14  4.             R_296_15  4.          
    x_16      R_296_17  73.            R_296_18  35.         
    x_16      R_296_19  92.            R_296_20  67.         
    x_16      R_296_22  85.            R_296_23  69.         
    x_16      R_296_24  37.            R_296_26  54.         
    x_16      R_296_27  88.            R_296_29  84.         
    x_16      R_296_30  50.            R_296_31  77.         
    x_17      OBJROW     -9.           R_296_0   67.         
    x_17      R_296_1   95.            R_296_3   79.         
    x_17      R_296_5   95.            R_296_6   72.         
    x_17      R_296_7   19.            R_296_8   84.         
    x_17      R_296_9   58.            R_296_10  93.         
    x_17      R_296_12  41.            R_296_13  52.         
    x_17      R_296_14  92.            R_296_15  34.         
    x_17      R_296_16  86.            R_296_17  76.         
    x_17      R_296_18  59.            R_296_19  2.          
    x_17      R_296_21  78.            R_296_22  52.         
    x_17      R_296_23  42.            R_296_24  68.         
    x_17      R_296_25  52.            R_296_26  31.         
    x_17      R_296_27  13.            R_296_28  45.         
    x_17      R_296_29  64.            R_296_30  91.         
    x_17      R_296_31  43.         
    x_18      OBJROW     -8.           R_296_0   84.         
    x_18      R_296_4   74.            R_296_5   95.         
    x_18      R_296_6   22.            R_296_7   100.        
    x_18      R_296_9   93.            R_296_10  98.         
    x_18      R_296_11  65.            R_296_12  47.         
    x_18      R_296_13  48.            R_296_15  31.         
    x_18      R_296_16  84.            R_296_17  29.         
    x_18      R_296_18  60.            R_296_19  35.         
    x_18      R_296_20  66.            R_296_22  99.         
    x_18      R_296_23  47.            R_296_24  87.         
    x_18      R_296_25  90.            R_296_26  24.         
    x_18      R_296_28  94.            R_296_29  27.         
    x_18      R_296_31  80.         
    x_19      OBJROW     -9.           R_296_0   100.        
    x_19      R_296_1   95.            R_296_2   51.         
    x_19      R_296_3   3.             R_296_4   15.         
    x_19      R_296_5   74.            R_296_6   49.         
    x_19      R_296_7   60.            R_296_8   99.         
    x_19      R_296_9   83.            R_296_10  19.         
    x_19      R_296_12  68.            R_296_13  38.         
    x_19      R_296_14  4.             R_296_15  72.         
    x_19      R_296_16  54.            R_296_18  40.         
    x_19      R_296_19  26.            R_296_21  59.         
    x_19      R_296_22  20.            R_296_25  40.         
    x_19      R_296_27  25.            R_296_28  29.         
    x_19      R_296_29  16.            R_296_30  48.         
    x_19      R_296_31  65.         
    x_20      OBJROW     -5.           R_296_3   18.         
    x_20      R_296_4   55.            R_296_5   26.         
    x_20      R_296_6   98.            R_296_7   3.          
    x_20      R_296_8   20.            R_296_9   70.         
    x_20      R_296_10  18.            R_296_12  54.         
    x_20      R_296_13  62.            R_296_14  39.         
    x_20      R_296_15  81.            R_296_16  95.         
    x_20      R_296_17  12.            R_296_19  92.         
    x_20      R_296_20  39.            R_296_21  87.         
    x_20      R_296_23  12.            R_296_25  93.         
    x_20      R_296_26  30.            R_296_30  27.         
    x_20      R_296_31  85.         
    x_21      OBJROW     -1.           R_296_0   43.         
    x_21      R_296_1   64.            R_296_2   45.         
    x_21      R_296_4   16.            R_296_5   6.          
    x_21      R_296_6   49.            R_296_7   99.         
    x_21      R_296_8   29.            R_296_9   79.         
    x_21      R_296_10  16.            R_296_11  74.         
    x_21      R_296_12  23.            R_296_13  80.         
    x_21      R_296_14  10.            R_296_15  41.         
    x_21      R_296_16  31.            R_296_17  59.         
    x_21      R_296_18  59.            R_296_19  30.         
    x_21      R_296_20  14.            R_296_21  73.         
    x_21      R_296_22  34.            R_296_23  31.         
    x_21      R_296_24  30.            R_296_25  22.         
    x_21      R_296_29  20.            R_296_31  98.         
    x_22      OBJROW     -1.           R_296_0   1.          
    x_22      R_296_1   1.             R_296_2   5.          
    x_22      R_296_3   1.             R_296_4   49.         
    x_22      R_296_7   35.            R_296_9   67.         
    x_22      R_296_11  73.            R_296_12  62.         
    x_22      R_296_14  38.            R_296_16  54.         
    x_22      R_296_17  74.            R_296_18  55.         
    x_22      R_296_19  42.            R_296_20  73.         
    x_22      R_296_21  53.            R_296_23  12.         
    x_22      R_296_26  68.            R_296_27  21.         
    x_22      R_296_29  14.            R_296_30  28.         
    x_22      R_296_31  66.         
    x_23      OBJROW     -6.           R_296_1   21.         
    x_23      R_296_3   59.            R_296_4   66.         
    x_23      R_296_5   48.            R_296_6   29.         
    x_23      R_296_8   56.            R_296_9   51.         
    x_23      R_296_10  39.            R_296_11  21.         
    x_23      R_296_12  29.            R_296_15  30.         
    x_23      R_296_16  33.            R_296_17  78.         
    x_23      R_296_18  4.             R_296_19  52.         
    x_23      R_296_20  92.            R_296_21  63.         
    x_23      R_296_22  42.            R_296_24  83.         
    x_23      R_296_25  43.            R_296_26  7.          
    x_23      R_296_27  33.            R_296_29  87.         
    x_23      R_296_30  33.            R_296_31  42.         
    x_24      OBJROW     -8.           R_296_0   84.         
    x_24      R_296_1   50.            R_296_2   62.         
    x_24      R_296_3   89.            R_296_5   23.         
    x_24      R_296_6   7.             R_296_7   9.          
    x_24      R_296_9   3.             R_296_10  28.         
    x_24      R_296_12  98.            R_296_13  56.         
    x_24      R_296_16  76.            R_296_17  1.          
    x_24      R_296_18  3.             R_296_19  99.         
    x_24      R_296_21  20.            R_296_22  33.         
    x_24      R_296_23  83.            R_296_24  45.         
    x_24      R_296_26  86.            R_296_28  24.         
    x_24      R_296_29  31.            R_296_30  21.         
    x_25      OBJROW     -6.           R_296_0   70.         
    x_25      R_296_2   14.            R_296_3   32.         
    x_25      R_296_4   86.            R_296_5   23.         
    x_25      R_296_6   1.             R_296_7   16.         
    x_25      R_296_8   83.            R_296_9   43.         
    x_25      R_296_10  83.            R_296_11  17.         
    x_25      R_296_12  32.            R_296_14  89.         
    x_25      R_296_15  28.            R_296_16  1.          
    x_25      R_296_17  73.            R_296_18  48.         
    x_25      R_296_19  100.           R_296_21  85.         
    x_25      R_296_22  40.            R_296_25  18.         
    x_25      R_296_26  46.            R_296_27  80.         
    x_25      R_296_28  77.            R_296_29  83.         
    x_26      OBJROW     -7.           R_296_0   78.         
    x_26      R_296_1   80.            R_296_2   9.          
    x_26      R_296_3   78.            R_296_4   4.          
    x_26      R_296_5   25.            R_296_6   67.         
    x_26      R_296_7   56.            R_296_9   44.         
    x_26      R_296_10  18.            R_296_11  34.         
    x_26      R_296_12  42.            R_296_14  6.          
    x_26      R_296_15  27.            R_296_16  57.         
    x_26      R_296_18  27.            R_296_19  10.         
    x_26      R_296_20  15.            R_296_21  54.         
    x_26      R_296_22  76.            R_296_23  66.         
    x_26      R_296_25  96.            R_296_26  16.         
    x_26      R_296_30  92.            R_296_31  69.         
    x_27      OBJROW     -7.           R_296_1   24.         
    x_27      R_296_2   39.            R_296_3   78.         
    x_27      R_296_4   88.            R_296_7   84.         
    x_27      R_296_9   3.             R_296_10  76.         
    x_27      R_296_11  30.            R_296_13  10.         
    x_27      R_296_14  89.            R_296_15  98.         
    x_27      R_296_17  25.            R_296_18  36.         
    x_27      R_296_21  80.            R_296_22  42.         
    x_27      R_296_23  76.            R_296_25  63.         
    x_27      R_296_26  63.            R_296_27  41.         
    x_27      R_296_28  8.             R_296_29  55.         
    x_27      R_296_30  86.         
    x_28      OBJROW     -9.           R_296_0   31.         
    x_28      R_296_2   83.            R_296_3   8.          
    x_28      R_296_4   68.            R_296_6   58.         
    x_28      R_296_7   96.            R_296_9   31.         
    x_28      R_296_10  98.            R_296_11  89.         
    x_28      R_296_12  16.            R_296_13  36.         
    x_28      R_296_14  17.            R_296_15  56.         
    x_28      R_296_16  5.             R_296_17  18.         
    x_28      R_296_18  6.             R_296_19  27.         
    x_28      R_296_20  92.            R_296_21  98.         
    x_28      R_296_23  45.            R_296_24  91.         
    x_28      R_296_25  71.            R_296_26  21.         
    x_28      R_296_27  37.            R_296_28  81.         
    x_28      R_296_29  35.            R_296_30  29.         
    x_29      OBJROW     -3.           R_296_0   62.         
    x_29      R_296_2   58.            R_296_5   53.         
    x_29      R_296_7   68.            R_296_8   55.         
    x_29      R_296_9   60.            R_296_10  85.         
    x_29      R_296_11  23.            R_296_12  19.         
    x_29      R_296_13  16.            R_296_14  4.          
    x_29      R_296_15  7.             R_296_16  78.         
    x_29      R_296_17  51.            R_296_18  77.         
    x_29      R_296_19  81.            R_296_20  73.         
    x_29      R_296_21  75.            R_296_23  42.         
    x_29      R_296_24  28.            R_296_26  47.         
    x_29      R_296_27  99.            R_296_28  51.         
    x_29      R_296_29  91.            R_296_30  84.         
    x_29      R_296_31  42.         
    x_30      OBJROW     -9.           R_296_0   67.         
    x_30      R_296_1   34.            R_296_3   64.         
    x_30      R_296_4   87.            R_296_5   94.         
    x_30      R_296_6   43.            R_296_7   79.         
    x_30      R_296_9   95.            R_296_10  13.         
    x_30      R_296_11  55.            R_296_12  59.         
    x_30      R_296_14  98.            R_296_16  4.          
    x_30      R_296_17  21.            R_296_18  45.         
    x_30      R_296_19  12.            R_296_21  38.         
    x_30      R_296_23  15.            R_296_24  93.         
    x_30      R_296_25  85.            R_296_27  63.         
    x_30      R_296_28  99.            R_296_29  38.         
    x_30      R_296_30  67.            R_296_31  72.         
    x_31      OBJROW     -3.           R_296_0   50.         
    x_31      R_296_1   11.            R_296_3   14.         
    x_31      R_296_4   62.            R_296_5   88.         
    x_31      R_296_6   96.            R_296_7   58.         
    x_31      R_296_8   35.            R_296_11  71.         
    x_31      R_296_12  69.            R_296_13  54.         
    x_31      R_296_15  11.            R_296_16  87.         
    x_31      R_296_17  4.             R_296_18  5.          
    x_31      R_296_19  100.           R_296_20  90.         
    x_31      R_296_21  86.            R_296_22  65.         
    x_31      R_296_23  49.            R_296_24  1.          
    x_31      R_296_25  37.            R_296_26  3.          
    x_31      R_296_27  42.            R_296_28  73.         
    x_31      R_296_29  87.            R_296_30  50.         
    x_31      R_296_31  3.          
RHS
    RHS       R_296_0   420.           R_296_1   529.        
    RHS       R_296_2   828.           R_296_3   1163.       
    RHS       R_296_4   1667.          R_296_5   562.        
    RHS       R_296_6   1097.          R_296_7   955.        
    RHS       R_296_8   603.           R_296_9   882.        
    RHS       R_296_10  731.           R_296_11  1151.       
    RHS       R_296_12  384.           R_296_13  1698.       
    RHS       R_296_14  1182.          R_296_15  1165.       
    RHS       R_296_16  1017.          R_296_17  464.        
    RHS       R_296_18  750.           R_296_19  1247.       
    RHS       R_296_20  613.           R_296_21  1409.       
    RHS       R_296_22  1630.          R_296_23  1265.       
    RHS       R_296_24  1140.          R_296_25  1301.       
    RHS       R_296_26  872.           R_296_27  1590.       
    RHS       R_296_28  783.           R_296_29  1194.       
    RHS       R_296_30  1263.          R_296_31  805.        
BOUNDS
 UI BOUND     x_0       10.         
 UI BOUND     x_1       10.         
 UI BOUND     x_2       10.         
 UI BOUND     x_3       10.         
 UI BOUND     x_4       10.         
 UI BOUND     x_5       10.         
 UI BOUND     x_6       10.         
 UI BOUND     x_7       10.         
 UI BOUND     x_8       10.         
 UI BOUND     x_9       10.         
 UI BOUND     x_10      10.         
 UI BOUND     x_11      10.         
 UI BOUND     x_12      10.         
 UI BOUND     x_13      10.         
 UI BOUND     x_14      10.         
 UI BOUND     x_15      10.         
 UI BOUND     x_16      10.         
 UI BOUND     x_17      10.         
 UI BOUND     x_18      10.         
 UI BOUND     x_19      10.         
 UI BOUND     x_20      10.         
 UI BOUND     x_21      10.         
 UI BOUND     x_22      10.         
 UI BOUND     x_23      10.         
 UI BOUND     x_24      10.         
 UI BOUND     x_25      10.         
 UI BOUND     x_26      10.         
 UI BOUND     x_27      10.         
 UI BOUND     x_28      10.         
 UI BOUND     x_29      10.         
 UI BOUND     x_30      10.         
 UI BOUND     x_31      10.         
ENDATA
